116
24
333
326
59
263
161
57
601
65
95
16
102
116
326
183
63
260
213
0
79
90
311
264
43
684
189
355
61
145
33
41
120
83
507
125
279
110
1205
1302
0
676
185
190
58
74
48
79
174
224
158
43
79
165
47
27
344
218
93
76
214
239
434
121
866
0
374
68
85
637
475
1298
163
82
167
94
140
67
399
14
345
146
336
1120
473
273
34
483
35
45
305
221
60
478
396
152
294
860
23
68
